objective value:                                   -5
t_n_9                                               1 	(obj:-1)
t_n_413                                             1 	(obj:-1)
t_n_784                                             1 	(obj:-1)
t_n_926                                             1 	(obj:-1)
t_n_973                                             1 	(obj:-1)
